(declare-fun var0 () String)
(assert (RegexIn var0 (RegexConcat (RegexPlus (RegexStar (Str2Reg "eee"))) (RegexConcat (RegexUnion (RegexPlus (Str2Reg "c")) (RegexStar (Str2Reg "ddd"))) (RegexConcat (RegexPlus (RegexPlus (Str2Reg "bb"))) (RegexConcat (RegexPlus (RegexPlus (Str2Reg "aaa"))) (RegexConcat (RegexPlus (RegexUnion (Str2Reg "8") (Str2Reg "999"))) (RegexConcat (RegexStar (RegexUnion (Str2Reg "66") (Str2Reg "7"))) (RegexConcat (RegexStar (RegexPlus (Str2Reg "555"))) (RegexConcat (RegexUnion (RegexStar (Str2Reg "333")) (RegexPlus (Str2Reg "44"))) (RegexUnion (RegexPlus (Str2Reg "00")) (RegexUnion (Str2Reg "11") (Str2Reg "2")))))))))))))
(check-sat)